qbf_easy_train/easy_4650_SAT.qdimacs
p cnf 20 44
a 10 13 0
e 1 2 3 4 5 6 7 8 9 11 12 14 15 16 17 18 19 20 0
-1 -2 -3 0
1 2 -3 0
-1 2 3 0
1 -2 3 0
-6 -4 0
-6 -5 0
4 5 6 0
7 8 0
-7 8 0
-6 -8 -9 0
6 8 -9 0
-6 8 9 0
6 -8 9 0
-3 9 -10 0
3 -9 -10 0
-3 -9 10 0
3 9 10 0
-11 2 0
-11 -2 0
13 -14 -15 0
-13 14 -15 0
13 14 15 0
-13 -14 15 0
12 -15 -16 0
-12 15 -16 0
12 15 16 0
-12 -15 16 0
-17 -11 0
-17 -16 0
11 16 17 0
18 -10 0
18 17 0
10 -17 -18 0
-19 -4 0
-19 7 0
4 -7 19 0
-20 18 0
-20 -19 0
-18 19 20 0
-1 -7 -19 0
-4 -19 11 -8 0
16 -5 -3 2 10 14 -13 0
7 10 15 -8 0
20 0
