sat_easy_train/easy_4650_SAT.dimacs
p cnf 110 352
3 -1 0
3 -2 0
1 2 -3 0
5 1 0
5 4 0
-1 -4 -5 0
8 6 0
8 -7 0
-6 7 -8 0
-9 -5 0
-9 8 0
5 -8 9 0
4 -9 -10 0
-4 9 -10 0
4 9 10 0
-4 -9 10 0
12 7 0
12 11 0
-7 -11 -12 0
13 -5 0
13 12 0
5 -12 -13 0
14 10 0
14 -13 0
-10 13 -14 0
-14 -15 -16 0
14 15 -16 0
-14 15 16 0
14 -15 16 0
15 -17 0
-15 -17 0
-16 -17 -18 0
16 17 -18 0
-16 17 18 0
16 -17 18 0
-19 2 0
-19 -2 0
10 -19 -20 0
-10 19 -20 0
10 19 20 0
-10 -19 20 0
20 -21 -22 0
-20 21 -22 0
20 21 22 0
-20 -21 22 0
18 -22 -23 0
-18 22 -23 0
18 22 23 0
-18 -22 23 0
-24 21 0
-24 19 0
-21 -19 24 0
26 -25 0
26 -8 0
25 8 -26 0
-27 9 0
-27 26 0
-9 -26 27 0
-28 -27 0
-28 -11 0
27 11 28 0
29 24 0
29 -28 0
-24 28 -29 0
-30 -23 0
-30 -29 0
23 29 30 0
31 -3 0
31 30 0
3 -30 -31 0
33 32 0
33 -4 0
-32 4 -33 0
34 -20 -35 0
-34 20 -35 0
34 20 35 0
-34 -20 35 0
37 7 0
37 -7 0
-36 37 -38 0
36 -37 -38 0
-36 -37 38 0
36 37 38 0
39 38 0
39 6 0
-38 -6 -39 0
40 1 0
40 39 0
-1 -39 -40 0
-41 -40 0
-41 32 0
40 -32 41 0
-42 -35 0
-42 41 0
35 -41 42 0
43 -33 0
43 -42 0
33 42 -43 0
-7 -1 -44 0
7 1 -44 0
-7 1 44 0
7 -1 44 0
44 45 -46 0
-44 -45 -46 0
44 -45 46 0
-44 45 46 0
47 43 0
47 46 0
-43 -46 -47 0
-31 47 -48 0
31 -47 -48 0
-31 -47 48 0
31 47 48 0
20 21 -49 0
-20 -21 -49 0
20 -21 49 0
-20 21 49 0
-50 49 0
-50 -5 0
-49 5 50 0
51 -7 0
51 25 0
7 -25 -51 0
-52 50 0
-52 -51 0
-50 51 52 0
53 48 0
53 52 0
-48 -52 -53 0
32 9 -54 0
-32 -9 -54 0
32 -9 54 0
-32 9 54 0
-55 -40 0
-55 6 0
40 -6 55 0
-56 19 0
-56 55 0
-19 -55 56 0
57 -54 0
57 -56 0
54 56 -57 0
2 -58 -59 0
-2 58 -59 0
2 58 59 0
-2 -58 59 0
-60 -59 0
-60 -19 0
59 19 60 0
-61 60 0
-61 -2 0
-60 2 61 0
62 -58 0
62 -5 0
58 5 -62 0
-63 -61 0
-63 62 0
61 -62 63 0
63 -40 -64 0
-63 40 -64 0
63 40 64 0
-63 -40 64 0
65 -5 0
65 -59 0
5 59 -65 0
-10 -61 -66 0
10 61 -66 0
-10 61 66 0
10 -61 66 0
-67 -65 0
-67 66 0
65 -66 67 0
-68 25 0
-68 45 0
-25 -45 68 0
-67 68 -69 0
67 -68 -69 0
-67 -68 69 0
67 68 69 0
-55 69 -70 0
55 -69 -70 0
-55 -69 70 0
55 69 70 0
-64 -70 -71 0
64 70 -71 0
-64 70 71 0
64 -70 71 0
-72 57 0
-72 71 0
-57 -71 72 0
-74 -73 0
-74 1 0
73 -1 74 0
-75 26 0
-75 -74 0
-26 74 75 0
76 -63 0
76 45 0
63 -45 -76 0
77 -75 0
77 76 0
75 -76 -77 0
78 26 0
78 -25 0
-26 25 -78 0
79 -34 0
79 74 0
34 -74 -79 0
-80 -79 0
-80 41 0
79 -41 80 0
-78 -80 -81 0
78 80 -81 0
-78 80 81 0
78 -80 81 0
-82 39 0
-82 -81 0
-39 81 82 0
83 -63 -84 0
-83 63 -84 0
83 63 84 0
-83 -63 84 0
-85 -82 0
-85 -84 0
82 84 85 0
1 -9 -86 0
-1 9 -86 0
1 9 86 0
-1 -9 86 0
87 -86 0
87 -73 0
86 73 -87 0
15 -60 -88 0
-15 60 -88 0
15 60 88 0
-15 -60 88 0
-89 88 0
-89 66 0
-88 -66 89 0
90 87 0
90 89 0
-87 -89 -90 0
-91 -85 0
-91 -90 0
85 90 91 0
92 -77 0
92 -91 0
77 91 -92 0
-93 72 0
-93 -92 0
-72 92 93 0
94 6 0
94 -26 0
-6 26 -94 0
-95 61 0
-95 -94 0
-61 94 95 0
-96 -93 0
-96 95 0
93 -95 96 0
97 53 0
97 96 0
-53 -96 -97 0
-98 15 0
-98 -58 0
-15 58 98 0
99 -59 0
99 25 0
59 -25 -99 0
-98 -99 -100 0
98 99 -100 0
-98 99 100 0
98 -99 100 0
-101 -49 0
-101 -5 0
49 5 101 0
-102 -32 0
-102 -40 0
32 40 102 0
-103 101 0
-103 -102 0
-101 102 103 0
-100 103 -104 0
100 -103 -104 0
-100 -103 104 0
100 103 104 0
40 -41 -105 0
-40 41 -105 0
40 41 105 0
-40 -41 105 0
106 66 0
106 5 0
-66 -5 -106 0
107 -105 0
107 106 0
105 -106 -107 0
-108 -107 0
-108 -105 0
107 105 108 0
109 -104 0
109 108 0
104 -108 -109 0
110 -97 0
110 -109 0
97 109 -110 0
-35 -29 -56 80 0
18 -95 81 0
80 -90 -13 36 73 107 0
81 53 -15 16 25 0
-46 34 65 -91 105 85 0
29 19 -55 0
71 -24 -25 49 0
-52 -80 0
100 98 57 -80 69 -105 0
-60 74 37 -34 0
88 -69 -77 100 0
107 -91 -49 7 0
-68 57 -105 78 0
6 -110 0
-105 -57 20 0
-78 68 54 1 12 0
-2 -51 106 91 0
19 -88 -11 -39 0
-46 24 -52 0
-58 68 -45 70 34 0
51 90 0
-86 -19 -78 -25 0
-14 -82 21 -58 -109 0
-90 -40 -53 -106 -6 0
5 44 15 -84 0
-54 29 0
38 20 0
-48 19 -50 31 0
-100 -44 72 0
89 -67 94 0
-64 18 6 -107 -31 0
78 1 -57 0
85 -101 12 109 35 -71 0
-35 -91 -38 86 0
1 -84 50 -56 0
-25 -61 -71 11 -27 0
8 -19 90 57 -47 27 0
30 70 91 54 29 0
49 12 74 6 15 0
82 -86 0
-100 -15 68 -2 72 -108 0
22 82 -38 0
23 67 76 8 14 0
72 11 -68 94 0
-41 -86 -79 65 0
-1 58 49 9 -32 76 0
110 0
